NAME : att48.11014.tour
COMMENT : Cost = 0_11014
COMMENT : Found by LKH [Keld Helsgaun] Thu Nov 16 16:23:47 2017
TYPE : TOUR
DIMENSION : 50
TOUR_SECTION
1
8
49
40
15
12
11
13
25
14
23
3
22
16
41
34
29
2
26
4
35
45
10
24
42
5
48
39
32
21
47
20
33
46
36
30
43
17
27
19
37
6
28
7
18
44
31
38
50
9
-1
EOF
